outputs/case_256.model.txt
investment_target_is_insurance = False
prohibit_use_fhc_name_and_change_registration = True
paid_in_capital_total = 0
investment_target_in_first_to_ninth_category = True
other_necessary_measures = False
remove_manager_or_officer = False
regulator_opposition = False
revoke_statutory_meeting_resolution = True
investment_target_is_other_financial_related = True
extension_applied = True
investment_approved = False
regulator_orders_disposal = True
investment_target_is_venture_capital = False
investment_target_is_securities = False
secured_credit_amount = 60000000
investment_target_is_bill_finance = False
order_dissolution_and_liquidation_if_not_completed = True
board_meeting_approval_ratio = 3/5
extension_times = 3
suspend_subsidiary_business = False
investment_target_is_fhc = False
subsidiary_capital_reduction = True
unsecured_credit_amount_to_related_enterprises = 50000000
investment_not_counted_in_total_shares = True
remove_director_or_supervisor_or_suspend_duties = True
each_extension_years = 3
notify_ministry_to_revoke_registration = True
capital_reduction_approved_by_regulator = True
regulator_defined_threshold = 60000001
days_since_application_received = 20
investment_target_is_bank = False
investment_has_no_voting_right = True
investment_target_in_tenth_or_eleventh_category = True
revoke_permit = True
investment_target_is_futures = False
investment_target_is_trust = False
order_disposal_of_subsidiary_shares = False
fhc_violation = True
order_dispose_shares_and_reduce_directors = True
board_meeting_attendance_ratio = 1/2
investment_target_is_credit_card = False
regulator_orders_adjustment = True
investment_target_is_foreign_financial_institution = False
secured_credit_amount_to_related_enterprises = 60000000
subsidiary_business_or_investment_exceeding = True
investment_without_approval_prohibited = True
consumer_loan_exempt_limit_ok = True
no_unsecured_credit_over_3_percent = True
collateral_conditions_not_better_than_similar = True
revoke_permit_consequences = True
business_is_investment = True
subsidiary_business_scope = True
full_collateral_provided = True
fhc_officer_is_manager_of_venture_investment = False
notify_ministry_on_director_removal = True
subsidiary_business_or_investment_exceeding_limits = True
subsidiary_capital_reduction_approval = True
investment_approval_timing = 1
penalty = False
approved_investment_targets = 1
secured_credit_over_5_percent_requirements = True
business_is_management_of_invested_companies = True
prohibited_manager_roles = True
regulator_measures_for_violation = True
adjustment_period_years = 0
adjustment_period_limit = 0
shareholding_percentage = 0
include_spouse_and_minor_children_shareholding = False
major_shareholder_definition = 0
/0 = [(60000000, 0) -> 3000000000/49999999999,
 else -> -2500000000]